c "329365.clq"
p edge 142 552
e 1 5
e 1 6
e 1 9
e 1 21
e 1 30
e 1 45
e 1 50
e 1 67
e 1 70
e 1 74
e 1 92
e 1 107
e 1 110
e 1 112
e 1 125
e 2 5
e 2 6
e 2 7
e 2 11
e 2 13
e 2 31
e 2 33
e 2 40
e 2 71
e 2 84
e 2 91
e 2 100
e 2 109
e 2 114
e 2 121
e 2 127
e 2 132
e 2 133
e 2 140
e 3 5
e 3 6
e 3 7
e 3 12
e 3 18
e 3 26
e 3 32
e 3 35
e 3 38
e 3 41
e 3 77
e 3 97
e 3 121
e 3 133
e 4 5
e 4 7
e 4 8
e 4 11
e 4 15
e 4 17
e 4 18
e 4 22
e 4 27
e 4 34
e 4 38
e 4 77
e 4 116
e 4 125
e 5 6
e 5 8
e 5 9
e 5 10
e 5 11
e 5 12
e 5 16
e 5 17
e 5 18
e 5 19
e 5 20
e 5 30
e 5 33
e 5 46
e 5 52
e 5 76
e 5 80
e 5 88
e 5 89
e 5 93
e 5 95
e 5 96
e 5 102
e 5 104
e 5 120
e 5 122
e 5 135
e 5 136
e 5 141
e 6 7
e 6 8
e 6 9
e 6 10
e 6 14
e 6 20
e 6 28
e 6 57
e 6 63
e 6 64
e 6 74
e 6 85
e 6 103
e 7 8
e 7 9
e 7 10
e 7 12
e 7 14
e 7 15
e 7 16
e 7 18
e 7 19
e 7 21
e 7 24
e 7 26
e 7 29
e 7 31
e 7 34
e 7 35
e 7 37
e 7 44
e 7 47
e 7 49
e 7 56
e 7 67
e 7 70
e 7 72
e 7 78
e 7 82
e 7 96
e 7 101
e 7 104
e 7 115
e 7 117
e 7 119
e 7 120
e 7 133
e 7 136
e 7 141
e 8 10
e 8 11
e 8 13
e 8 15
e 8 31
e 8 43
e 8 49
e 8 60
e 8 65
e 8 67
e 8 94
e 8 112
e 8 138
e 9 12
e 9 13
e 9 17
e 9 22
e 9 23
e 9 24
e 9 25
e 9 32
e 9 33
e 9 35
e 9 36
e 9 39
e 9 40
e 9 41
e 9 43
e 9 45
e 9 54
e 9 68
e 9 69
e 9 77
e 9 79
e 9 99
e 9 113
e 9 114
e 9 124
e 9 132
e 9 136
e 10 13
e 10 14
e 10 19
e 10 20
e 10 21
e 10 23
e 10 52
e 10 58
e 10 61
e 10 73
e 10 79
e 10 86
e 10 122
e 11 14
e 11 27
e 11 28
e 11 32
e 11 42
e 11 46
e 11 50
e 11 53
e 11 66
e 11 97
e 11 110
e 11 138
e 11 142
e 12 21
e 12 24
e 12 25
e 12 34
e 12 77
e 12 80
e 12 86
e 12 94
e 12 118
e 13 29
e 13 30
e 13 36
e 13 47
e 13 49
e 13 59
e 13 97
e 13 101
e 13 103
e 13 105
e 14 15
e 14 16
e 14 23
e 14 28
e 14 33
e 14 37
e 14 42
e 14 54
e 14 83
e 14 84
e 14 98
e 14 106
e 14 130
e 15 16
e 15 34
e 15 66
e 15 76
e 16 17
e 16 19
e 16 23
e 16 27
e 16 40
e 16 46
e 16 47
e 16 51
e 16 58
e 16 68
e 16 72
e 16 127
e 17 22
e 17 25
e 17 36
e 17 37
e 17 38
e 17 43
e 17 45
e 17 46
e 17 57
e 17 62
e 17 65
e 17 80
e 17 131
e 17 135
e 18 22
e 18 98
e 18 99
e 18 104
e 18 124
e 19 20
e 19 27
e 19 39
e 19 42
e 19 50
e 19 60
e 19 71
e 19 75
e 19 93
e 19 96
e 19 106
e 19 111
e 19 115
e 19 129
e 19 130
e 20 24
e 20 52
e 20 53
e 20 88
e 20 95
e 20 123
e 21 26
e 21 32
e 21 36
e 21 54
e 21 56
e 21 65
e 21 72
e 21 85
e 21 91
e 21 96
e 21 103
e 21 108
e 21 110
e 21 115
e 22 25
e 22 28
e 22 29
e 22 31
e 22 44
e 22 55
e 22 62
e 22 80
e 22 89
e 22 131
e 22 133
e 22 141
e 23 120
e 24 26
e 24 30
e 24 135
e 25 43
e 25 126
e 26 40
e 26 139
e 27 51
e 27 63
e 27 81
e 27 105
e 27 107
e 27 111
e 27 137
e 27 142
e 28 29
e 28 35
e 28 51
e 28 60
e 28 62
e 28 75
e 28 109
e 28 116
e 28 121
e 28 134
e 28 137
e 29 42
e 29 47
e 29 48
e 29 56
e 29 75
e 29 89
e 29 111
e 29 130
e 30 108
e 31 38
e 31 84
e 31 139
e 32 54
e 32 61
e 32 74
e 32 104
e 32 109
e 33 57
e 33 63
e 33 78
e 33 82
e 33 85
e 33 107
e 33 120
e 34 37
e 34 41
e 34 44
e 34 48
e 34 73
e 34 86
e 34 87
e 34 90
e 34 102
e 34 119
e 35 95
e 36 41
e 36 48
e 36 69
e 36 131
e 37 39
e 37 44
e 37 55
e 37 59
e 37 84
e 37 109
e 37 118
e 38 39
e 38 102
e 38 107
e 38 116
e 39 49
e 39 90
e 39 92
e 39 113
e 39 114
e 39 117
e 40 53
e 40 66
e 40 95
e 40 134
e 40 140
e 41 81
e 42 51
e 42 55
e 42 64
e 42 69
e 42 125
e 43 45
e 43 50
e 43 55
e 44 48
e 44 85
e 44 94
e 44 98
e 44 123
e 44 137
e 45 53
e 45 58
e 45 112
e 45 118
e 45 127
e 46 69
e 46 108
e 47 64
e 47 79
e 47 87
e 47 88
e 47 100
e 48 58
e 48 65
e 48 99
e 49 92
e 49 128
e 50 71
e 50 138
e 51 52
e 51 59
e 51 66
e 51 68
e 52 60
e 52 89
e 52 93
e 52 140
e 53 57
e 53 64
e 53 67
e 53 70
e 53 73
e 53 124
e 53 132
e 54 56
e 54 62
e 54 71
e 54 74
e 54 76
e 54 78
e 54 81
e 54 100
e 54 124
e 54 127
e 54 131
e 56 59
e 56 83
e 56 128
e 56 134
e 57 61
e 57 115
e 57 136
e 58 117
e 59 61
e 59 79
e 59 87
e 59 106
e 59 113
e 60 63
e 60 91
e 60 99
e 60 119
e 61 68
e 61 70
e 61 83
e 61 87
e 62 78
e 63 139
e 64 126
e 65 97
e 66 111
e 66 114
e 67 76
e 67 90
e 67 100
e 67 105
e 68 73
e 68 81
e 68 98
e 68 105
e 69 72
e 69 75
e 69 92
e 69 126
e 71 90
e 73 123
e 74 82
e 74 102
e 74 117
e 76 83
e 76 93
e 77 139
e 79 125
e 80 108
e 81 82
e 81 94
e 81 101
e 81 126
e 82 122
e 83 129
e 84 86
e 84 101
e 85 88
e 85 135
e 86 91
e 87 106
e 87 121
e 88 128
e 90 112
e 91 118
e 92 110
e 92 137
e 94 116
e 94 122
e 94 140
e 95 129
e 95 130
e 95 132
e 96 113
e 96 123
e 98 103
e 98 119
e 100 142
e 110 128
e 117 142
e 121 129
e 123 138
e 131 134
e 131 141
